16
16
3 6 8 0 12 15
6 13 0 7 14 11 5 9
12 3 0 4 8 11 1 10 7 14 13 6 5 15 9 2
12 3 13 8 14 11 7 1 9 0
5 4 3 1 15 8 14 13 9 6 7 10 11 0 12
4
7 15 9 4 14 12 0 6 10 3 13 2 5 11 8 1
4 2 10 11 0 9 15 14 8 1 5 7
13 12 7 9 10 11 3 0 4 5 1 8 14
8 1 3 0 7 14 13 6 9 15 11 4
6 10 5 3 13 14 15 1
8 0 13 11 4 14 7 10 15 9 5 2 3 12 6 1
12 4 11 3 6 15 13 2 5 7 9
0 10 4 7 13 1 2 8 6 3
4
7 1 3 2 4 9 14 11 10 0 12 6 15
